Route #1: 114 67 130 73 124 144 165 104
Route #2: 58 80 96 171 159 18 76 8
Route #3: 176 98 21 102 3 93 78 88
Route #4: 49 137 107 20 161 109 68 19
Route #5: 14 36 158 79 30 9 128 60
Route #6: 143 47 157 122 27 29 51 52
Route #7: 95 163 90 26 84 42 11 142
Route #8: 152 149 2 89 85 63 140 132
Route #9: 116 92 131 169 61 65 32 44
Route #10: 45 148 180 145
Route #11: 13 77 136 129 38 154 106 59
Route #12: 99 56 100 69 28 119 173 133
Route #13: 72 25 66 81 141 172 160 139
Route #14: 1 16 50 94 146 166 74 46
Route #15: 123 174 48 6 126 120 101 112
Route #16: 153 82 103 125 83 134 7 91
Route #17: 22 41 168 162 175 110 57 31
Route #18: 75 113 4 53 33 151 35 117
Route #19: 39 167 87 147 37 164 15 127
Route #20: 178 156 177 40 150 97 34 118
Route #21: 170 155 138 115 179 24 71 17
Route #22: 55 135 5 105 64 86 62 23
Route #23: 10 43 111 54 121 70 12 108
